data/solutions/recovery/degenerate/moderate/flexible/degenerate_moderate_instance6/28.sol
Elapsed time: 0.07
Upper bound: 10527879.0
Planning weighted value: 65486654.0
C[0]=10527879.0
C[1]=10511279.0
C[2]=10479697.0
y[0]=0
y[1]=2
y[2]=1
y[3]=1
y[4]=2
y[5]=2
y[6]=0
y[7]=0
y[8]=0
y[9]=2
y[10]=1
y[11]=1
y[12]=0
y[13]=0
y[14]=2
y[15]=0
y[16]=0
y[17]=1
y[18]=0
y[19]=2
y[20]=1
y[21]=0
y[22]=0
y[23]=1
y[24]=0
y[25]=1
