data/solutions/recovery/degenerate/moderate/flexible/degenerate_moderate_instance6/28.log

Log started (V12.6.3.0) Sat Apr 21 11:06:23 2018

New value for default parallel thread count: 1

Problem '/tmp/tmpsaHZvT.pyomo.lp' read.
Read time = 0.01 sec. (0.02 ticks)

Problem name         : /tmp/tmpsaHZvT.pyomo.lp
Objective sense      : Minimize
Variables            :      83  [Nneg: 1,  Binary: 78,  General Integer: 4]
Objective nonzeros   :       1
Linear constraints   :      59  [Less: 29,  Equal: 30]
  Nonzeros           :    1466
  RHS nonzeros       :      53

Variables            : Min LB: 0.000000         Max UB: 1.000000       
Objective nonzeros   : Min   : 1.000000         Max   : 1.000000       
Linear constraints   :
  Nonzeros           : Min   : 1.000000         Max   : 2096995.       
  RHS nonzeros       : Min   : 1.000000         Max   : 3.000000       
Tried aggregator 2 times.
MIP Presolve eliminated 26 rows and 1 columns.
Aggregator did 3 substitutions.
Reduced MIP has 30 rows, 79 columns, and 209 nonzeros.
Reduced MIP has 78 binaries, 1 generals, 0 SOSs, and 0 indicators.
Presolve time = 0.00 sec. (0.56 ticks)
Found incumbent of value 1.1634778e+07 after 0.00 sec. (0.70 ticks)
Probing time = 0.00 sec. (0.04 ticks)
Cover probing fixed 0 vars, tightened 4 bounds.
Tried aggregator 1 time.
Reduced MIP has 30 rows, 79 columns, and 209 nonzeros.
Reduced MIP has 78 binaries, 1 generals, 0 SOSs, and 0 indicators.
Presolve time = 0.00 sec. (0.13 ticks)
Probing time = 0.00 sec. (0.03 ticks)
Clique table members: 26.
MIP emphasis: balance optimality and feasibility.
MIP search method: dynamic search.
Parallel mode: none, using 1 thread.
Root relaxation solution time = 0.00 sec. (0.07 ticks)

        Nodes                                         Cuts/
   Node  Left     Objective  IInf  Best Integer    Best Bound    ItCnt     Gap

*     0+    0                       1.16348e+07  2096995.0000            81.98%
      0     0   1.05063e+07     4   1.16348e+07   1.05063e+07        4    9.70%
*     0+    0                       1.13021e+07   1.05063e+07             7.04%
      0     0   1.05063e+07     8   1.13021e+07      Fract: 2       10    7.04%
*     0+    0                       1.05831e+07   1.05063e+07             0.73%
      0     2   1.05063e+07     8   1.05831e+07   1.05063e+07       10    0.73%
Elapsed time = 0.01 sec. (2.71 ticks, tree = 0.01 MB, solutions = 2)
*   100+   17                       1.05315e+07   1.05063e+07             0.24%
*   108    23      integral     0   1.05308e+07   1.05063e+07      319    0.23%
*   120+   28                       1.05279e+07   1.05063e+07             0.21%

Cover cuts applied:  20
Gomory fractional cuts applied:  2

Root node processing (before b&c):
  Real time             =    0.01 sec. (2.71 ticks)
Sequential b&c:
  Real time             =    0.03 sec. (19.11 ticks)
                          ------------
Total (root+branch&cut) =    0.04 sec. (21.82 ticks)

Solution pool: 5 solutions saved.

MIP - Integer optimal solution:  Objective =  1.0527879000e+07
Solution time =    0.04 sec.  Iterations = 1539  Nodes = 505
Deterministic time = 21.82 ticks  (616.46 ticks/sec)


Incumbent solution written to file '/tmp/tmpeFKQZ_.cplex.sol'.
